p cnf 200 478
1 0
9 -10 0
-9 10 0
11 12 0
-11 -12 0
8 -9 0
8 -11 0
-8 9 11 0
13 14 0
-13 -14 0
7 -8 0
7 -13 0
-7 8 13 0
17 -18 0
-17 18 0
19 20 0
-19 -20 0
16 -17 0
16 -19 0
-16 17 19 0
21 22 0
-21 -22 0
15 -16 0
15 -21 0
-15 16 21 0
-6 7 0
-6 15 0
6 -7 -15 0
25 -26 0
-25 26 0
27 28 0
-27 -28 0
24 -25 0
24 -27 0
-24 25 27 0
29 30 0
-29 -30 0
23 -24 0
23 -29 0
-23 24 29 0
-5 6 0
-5 23 0
5 -6 -23 0
39 -26 0
-39 26 0
40 28 0
-40 -28 0
-38 39 0
-38 40 0
38 -39 -40 0
41 30 0
-41 -30 0
-37 38 0
-37 41 0
37 -38 -41 0
44 10 0
-44 -10 0
45 12 0
-45 -12 0
-43 44 0
-43 45 0
43 -44 -45 0
46 -14 0
-46 14 0
-42 43 0
-42 46 0
42 -43 -46 0
-36 37 0
-36 42 0
36 -37 -42 0
50 26 0
-50 -26 0
51 -28 0
-51 28 0
-49 50 0
-49 51 0
49 -50 -51 0
52 -30 0
-52 30 0
-48 49 0
-48 52 0
48 -49 -52 0
55 -10 0
-55 10 0
56 12 0
-56 -12 0
-54 55 0
-54 56 0
54 -55 -56 0
57 14 0
-57 -14 0
-53 54 0
-53 57 0
53 -54 -57 0
-47 48 0
-47 53 0
47 -48 -53 0
35 -36 0
35 -47 0
-35 36 47 0
-60 49 0
60 -49 0
61 30 0
-61 -30 0
-59 60 0
-59 61 0
59 -60 -61 0
64 10 0
-64 -10 0
65 -12 0
-65 12 0
-63 64 0
-63 65 0
63 -64 -65 0
66 -14 0
-66 14 0
-62 63 0
-62 66 0
62 -63 -66 0
-58 59 0
-58 62 0
58 -59 -62 0
34 -35 0
34 -58 0
-34 35 58 0
70 26 0
-70 -26 0
71 28 0
-71 -28 0
-69 70 0
-69 71 0
69 -70 -71 0
72 -30 0
-72 30 0
-68 69 0
-68 72 0
68 -69 -72 0
-74 63 0
74 -63 0
75 14 0
-75 -14 0
-73 74 0
-73 75 0
73 -74 -75 0
-67 68 0
-67 73 0
67 -68 -73 0
33 -34 0
33 -67 0
-33 34 67 0
-77 59 0
77 -59 0
-78 53 0
78 -53 0
-76 77 0
-76 78 0
76 -77 -78 0
32 -33 0
32 -76 0
-32 33 76 0
-81 69 0
81 -69 0
82 30 0
-82 -30 0
-80 81 0
-80 82 0
80 -81 -82 0
-83 42 0
83 -42 0
-79 80 0
-79 83 0
79 -80 -83 0
31 -32 0
31 -79 0
-31 32 79 0
-4 5 0
-4 31 0
4 -5 -31 0
-85 5 0
85 -5 0
-92 37 0
92 -37 0
95 18 0
-95 -18 0
96 20 0
-96 -20 0
-94 95 0
-94 96 0
94 -95 -96 0
97 -22 0
-97 22 0
-93 94 0
-93 97 0
93 -94 -97 0
-91 92 0
-91 93 0
91 -92 -93 0
-99 48 0
99 -48 0
102 -18 0
-102 18 0
103 20 0
-103 -20 0
-101 102 0
-101 103 0
101 -102 -103 0
104 22 0
-104 -22 0
-100 101 0
-100 104 0
100 -101 -104 0
-98 99 0
-98 100 0
98 -99 -100 0
90 -91 0
90 -98 0
-90 91 98 0
-106 59 0
106 -59 0
109 18 0
-109 -18 0
110 -20 0
-110 20 0
-108 109 0
-108 110 0
108 -109 -110 0
111 -22 0
-111 22 0
-107 108 0
-107 111 0
107 -108 -111 0
-105 106 0
-105 107 0
105 -106 -107 0
89 -90 0
89 -105 0
-89 90 105 0
-113 68 0
113 -68 0
-115 108 0
115 -108 0
116 22 0
-116 -22 0
-114 115 0
-114 116 0
114 -115 -116 0
-112 113 0
-112 114 0
112 -113 -114 0
88 -89 0
88 -112 0
-88 89 112 0
-118 59 0
118 -59 0
-119 100 0
119 -100 0
-117 118 0
-117 119 0
117 -118 -119 0
87 -88 0
87 -117 0
-87 88 117 0
-121 80 0
121 -80 0
-122 93 0
122 -93 0
-120 121 0
-120 122 0
120 -121 -122 0
86 -87 0
86 -120 0
-86 87 120 0
-84 85 0
-84 86 0
84 -85 -86 0
3 -4 0
3 -84 0
-3 4 84 0
-124 5 0
124 -5 0
-131 37 0
131 -37 0
-132 68 0
132 -68 0
-130 131 0
-130 132 0
130 -131 -132 0
-134 48 0
134 -48 0
-135 37 0
135 -37 0
-133 134 0
-133 135 0
133 -134 -135 0
129 -130 0
129 -133 0
-129 130 133 0
-137 59 0
137 -59 0
-138 48 0
138 -48 0
-136 137 0
-136 138 0
136 -137 -138 0
128 -129 0
128 -136 0
-128 129 136 0
-140 68 0
140 -68 0
-141 59 0
141 -59 0
-139 140 0
-139 141 0
139 -140 -141 0
127 -128 0
127 -139 0
-127 128 139 0
-143 59 0
143 -59 0
-144 37 0
144 -37 0
-142 143 0
-142 144 0
142 -143 -144 0
126 -127 0
126 -142 0
-126 127 142 0
-146 80 0
146 -80 0
-147 68 0
147 -68 0
-145 146 0
-145 147 0
145 -146 -147 0
125 -126 0
125 -145 0
-125 126 145 0
-123 124 0
-123 125 0
123 -124 -125 0
2 -3 0
2 -123 0
-2 3 123 0
-156 53 0
156 -53 0
-157 93 0
157 -93 0
-155 156 0
-155 157 0
155 -156 -157 0
-159 62 0
159 -62 0
-160 100 0
160 -100 0
-158 159 0
-158 160 0
158 -159 -160 0
154 -155 0
154 -158 0
-154 155 158 0
-162 73 0
162 -73 0
-163 107 0
163 -107 0
-161 162 0
-161 163 0
161 -162 -163 0
153 -154 0
153 -161 0
-153 154 161 0
-165 42 0
165 -42 0
-166 114 0
166 -114 0
-164 165 0
-164 166 0
164 -165 -166 0
152 -153 0
152 -164 0
-152 153 164 0
-168 73 0
168 -73 0
-169 100 0
169 -100 0
-167 168 0
-167 169 0
167 -168 -169 0
151 -152 0
151 -167 0
-151 152 167 0
-172 43 0
172 -43 0
173 14 0
-173 -14 0
-171 172 0
-171 173 0
171 -172 -173 0
-174 93 0
174 -93 0
-170 171 0
-170 174 0
170 -171 -174 0
150 -151 0
150 -170 0
-150 151 170 0
-181 100 0
181 -100 0
-182 68 0
182 -68 0
-180 181 0
-180 182 0
180 -181 -182 0
-184 107 0
184 -107 0
-185 37 0
185 -37 0
-183 184 0
-183 185 0
183 -184 -185 0
179 -180 0
179 -183 0
-179 180 183 0
-187 114 0
187 -114 0
-188 48 0
188 -48 0
-186 187 0
-186 188 0
186 -187 -188 0
178 -179 0
178 -186 0
-178 179 186 0
-190 93 0
190 -93 0
-191 59 0
191 -59 0
-189 190 0
-189 191 0
189 -190 -191 0
177 -178 0
177 -189 0
-177 178 189 0
-193 114 0
193 -114 0
-194 37 0
194 -37 0
-192 193 0
-192 194 0
192 -193 -194 0
176 -177 0
176 -192 0
-176 177 192 0
-197 94 0
197 -94 0
198 22 0
-198 -22 0
-196 197 0
-196 198 0
196 -197 -198 0
-199 68 0
199 -68 0
-195 196 0
-195 199 0
195 -196 -199 0
175 -176 0
175 -195 0
-175 176 195 0
-149 150 0
-149 175 0
149 -150 -175 0
-200 171 0
200 -171 0
-148 149 0
-148 200 0
148 -149 -200 0
-1 2 0
-1 148 0
1 -2 -148 0
